Copyright (C) 2013-2015, Filipe Brandao
Build (method = -2)
  #dp: 1105
  Step-3' Graph: 46 vertices and 477 arcs (0.00s)
  Step-4' Graph: 46 vertices and 477 arcs (0.00s)
  #V4/#V3 = 1.00
  #A4/#A3 = 1.00
Ready! (0.00s)
Optimize a model with 84 rows, 478 columns and 1350 nonzeros
Found heuristic solution: objective 258
Presolve removed 17 rows and 21 columns
Presolve time: 0.00s
Presolved: 67 rows, 457 columns, 1293 nonzeros
Variable types: 0 continuous, 457 integer (0 binary)
Optimize a model with 67 rows, 457 columns and 1293 nonzeros
Presolved: 67 rows, 457 columns, 1293 nonzeros

Root barrier log...

Ordering time: 0.00s

Barrier statistics:
 AA' NZ     : 6.830e+02
 Factor NZ  : 1.394e+03
 Factor Ops : 3.936e+04 (less than 1 second per iteration)
 Threads    : 1

                  Objective                Residual
Iter       Primal          Dual         Primal    Dual     Compl     Time
   0   3.10751568e+03 -7.99248571e+03  2.14e+04 2.22e-16  6.67e+01     0s
   1   9.75391908e+02 -3.04869609e+03  3.25e+03 5.55e-16  1.17e+01     0s
   2   3.69301183e+02 -8.78044902e+02  9.26e+01 8.88e-16  1.48e+00     0s
   3   2.74408369e+02 -2.55411911e+02  7.68e-01 4.44e-16  5.66e-01     0s
   4   2.14976638e+02 -7.31537869e+00  1.37e-01 2.22e-16  2.37e-01     0s
   5   1.92472656e+02  1.15541271e+02  5.59e-02 2.22e-16  8.21e-02     0s
   6   1.82378700e+02  1.53317674e+02  4.72e-03 1.96e-16  3.10e-02     0s
   7   1.79119397e+02  1.70425112e+02  1.33e-03 4.44e-16  9.28e-03     0s
   8   1.77836398e+02  1.74590485e+02  3.26e-04 5.55e-16  3.46e-03     0s
   9   1.77403084e+02  1.76289886e+02  1.07e-04 4.44e-16  1.19e-03     0s
  10   1.77217886e+02  1.77114089e+02  6.75e-06 3.77e-16  1.11e-04     0s
  11   1.77200151e+02  1.77199719e+02  9.62e-10 4.44e-16  4.60e-07     0s
  12   1.77200000e+02  1.77200000e+02  1.07e-12 4.10e-16  4.60e-10     0s
  13   1.77200000e+02  1.77200000e+02  1.58e-12 5.18e-16  5.28e-16     0s

Barrier solved model in 13 iterations and 0.00 seconds
Optimal objective 1.77200000e+02


Root relaxation: objective 1.772000e+02, 130 iterations, 0.00 seconds

    Nodes    |    Current Node    |     Objective Bounds      |     Work
 Expl Unexpl |  Obj  Depth IntInf | Incumbent    BestBd   Gap | It/Node Time

     0     0  177.20000    0    5  258.00000  177.20000  31.3%     -    0s
H    0     0                     178.0000000  177.20000  0.45%     -    0s

Explored 0 nodes (167 simplex iterations) in 0.01 seconds
Thread count was 1 (of 4 available processors)

Optimal solution found (tolerance 0.00e+00)
Best objective 1.780000000000e+02, best bound 1.780000000000e+02, gap 0.0%
Preprocessing time: 0.00 seconds
Gurobi run time: 0.01 seconds
Total run time: 0.01 seconds
Objective: 178
Solution:
6 x [i=1, i=30]
10 x [i=2, i=29]
12 x [i=3, i=28]
2 x [i=4, i=28]
12 x [i=5, i=26]
11 x [i=6, i=25]
1 x [i=6, i=26]
5 x [i=7, i=24]
10 x [i=7, i=27]
1 x [i=7, i=28]
11 x [i=8, i=23]
11 x [i=9, i=22]
1 x [i=9, i=37, i=38]
3 x [i=10, i=21]
8 x [i=11, i=20]
4 x [i=11, i=36, i=37]
4 x [i=12, i=19]
6 x [i=12, i=20]
11 x [i=13, i=18]
3 x [i=13, i=34, i=37]
7 x [i=14, i=17]
5 x [i=15, i=16]
6 x [i=15, i=34, i=35]
6 x [i=16, i=32, i=36]
1 x [i=17, i=30, i=37]
3 x [i=17, i=33, i=34]
4 x [i=19, i=31, i=34]
2 x [i=19, i=32, i=33]
2 x [i=19, i=32, i=35]
5 x [i=21, i=30, i=33]
1 x [i=21, i=31, i=32]
1 x [i=23, i=38, i=38, i=38]
1 x [i=29, i=35, i=36, i=37]
1 x [i=38]
1 x [i=38, i=38, i=38, i=38, i=38]
